experiments/sat_smt/run/sat-r+/results/helen.res
solved=true
solvingTime=32.128376007080078125
nActions=11