experiments/sat_smt/run/sat-r+/results/helen.out
Timesteps: 1
s UNSATISFIABLE
real 0.14
user 0.02
sys 0.00
Timesteps: 2
s UNSATISFIABLE
real 0.18
user 0.04
sys 0.00
Timesteps: 3
s UNSATISFIABLE
real 0.26
user 0.09
sys 0.00
Timesteps: 4
s UNSATISFIABLE
real 0.31
user 0.22
sys 0.00
Timesteps: 5
s UNSATISFIABLE
real 0.74
user 0.55
sys 0.01
Timesteps: 6
s UNSATISFIABLE
real 1.64
user 1.48
sys 0.02
Timesteps: 7
s UNSATISFIABLE
real 2.53
user 2.36
sys 0.01
Timesteps: 8
s UNSATISFIABLE
real 4.57
user 4.35
sys 0.01
Timesteps: 9
s UNSATISFIABLE
real 6.12
user 5.82
sys 0.03
Timesteps: 10
s UNSATISFIABLE
real 8.59
user 8.29
sys 0.02
Timesteps: 11
s SATISFIABLE
real 6.89
user 6.55
sys 0.03
